c Generated map
c Size: 9 * 9, weights in range: 1 to 10, walls: True, with ratio 0.1
c dim 6 of 8
c
p sp 81 115
c graph contains 81 nodes and 115 arcs
c
a 1 2 8
a 2 1 8
a 2 11 2
a 11 2 2
a 2 3 6
a 3 2 6
a 3 12 3
a 12 3 3
a 3 4 1
a 4 3 1
a 4 13 7
a 13 4 7
a 4 5 10
a 5 4 10
a 5 14 7
a 14 5 7
a 5 6 10
a 6 5 10
a 6 15 8
a 15 6 8
a 6 7 4
a 7 6 4
a 7 16 1
a 16 7 1
a 7 8 8
a 8 7 8
a 8 17 10
a 17 8 10
a 8 9 7
a 9 8 7
a 11 20 10
a 20 11 10
a 11 12 4
a 12 11 4
a 12 21 6
a 21 12 6
a 12 13 8
a 13 12 8
a 13 22 1
a 22 13 1
a 13 14 2
a 14 13 2
a 14 23 9
a 23 14 9
a 14 15 10
a 15 14 10
a 15 24 8
a 24 15 8
a 15 16 8
a 16 15 8
a 16 25 9
a 25 16 9
a 16 17 7
a 17 16 7
a 17 26 8
a 26 17 8
a 19 28 1
a 28 19 1
a 19 20 6
a 20 19 6
a 20 29 8
a 29 20 8
a 20 21 6
a 21 20 6
a 21 30 5
a 30 21 5
a 21 22 3
a 22 21 3
a 22 31 9
a 31 22 9
a 22 23 9
a 23 22 9
a 23 32 4
a 32 23 4
a 23 24 8
a 24 23 8
a 24 33 5
a 33 24 5
a 24 25 7
a 25 24 7
a 25 34 2
a 34 25 2
a 25 26 4
a 26 25 4
a 26 35 5
a 35 26 5
a 26 27 1
a 27 26 1
a 27 36 5
a 36 27 5
a 28 37 8
a 37 28 8
a 28 29 9
a 29 28 9
a 29 38 10
a 38 29 10
a 29 30 3
a 30 29 3
a 30 39 4
a 39 30 4
a 30 31 6
a 31 30 6
a 31 32 3
a 32 31 3
a 32 41 7
a 41 32 7
a 32 33 6
a 33 32 6
a 33 42 5
a 42 33 5
a 33 34 5
a 34 33 5
a 34 35 4
a 35 34 4
a 35 44 2
a 44 35 2
a 35 36 6
a 36 35 6
a 36 45 10
a 45 36 10
a 37 46 3
a 46 37 3
a 37 38 2
a 38 37 2
a 38 47 1
a 47 38 1
a 38 39 4
a 39 38 4
a 39 48 4
a 48 39 4
a 41 50 1
a 50 41 1
a 41 42 6
a 42 41 6
a 44 45 3
a 45 44 3
a 45 54 3
a 54 45 3
a 46 55 6
a 55 46 6
a 46 47 7
a 47 46 7
a 47 56 2
a 56 47 2
a 47 48 8
a 48 47 8
a 48 57 1
a 57 48 1
a 48 49 6
a 49 48 6
a 49 58 9
a 58 49 9
a 49 50 9
a 50 49 9
a 50 59 6
a 59 50 6
a 52 61 9
a 61 52 9
a 54 63 8
a 63 54 8
a 55 64 4
a 64 55 4
a 55 56 8
a 56 55 8
a 56 65 6
a 65 56 6
a 56 57 4
a 57 56 4
a 57 58 6
a 58 57 6
a 58 67 4
a 67 58 4
a 58 59 9
a 59 58 9
a 59 68 10
a 68 59 10
a 59 60 6
a 60 59 6
a 60 69 9
a 69 60 9
a 60 61 1
a 61 60 1
a 61 70 9
a 70 61 9
a 61 62 10
a 62 61 10
a 62 71 2
a 71 62 2
a 62 63 8
a 63 62 8
a 64 73 4
a 73 64 4
a 64 65 9
a 65 64 9
a 65 74 3
a 74 65 3
a 67 76 9
a 76 67 9
a 67 68 3
a 68 67 3
a 68 77 6
a 77 68 6
a 68 69 6
a 69 68 6
a 69 78 1
a 78 69 1
a 69 70 9
a 70 69 9
a 70 79 9
a 79 70 9
a 70 71 10
a 71 70 10
a 71 80 3
a 80 71 3
a 73 74 10
a 74 73 10
a 74 75 10
a 75 74 10
a 75 76 3
a 76 75 3
a 76 77 1
a 77 76 1
a 77 78 8
a 78 77 8
a 78 79 3
a 79 78 3
a 79 80 5
a 80 79 5
a 80 81 3
a 81 80 3
